CMPL model generation - running

CMPL version: 1.11.0
Authors: Thomas Schleiff, Mike Steglich
Distributed under the GPLv3 

create model instance ...
write model instance ...
CMPL model generation - finished

Solver - running


Welcome to IBM(R) ILOG(R) CPLEX(R) Interactive Optimizer 12.7.1.0
  with Simplex, Mixed Integer & Barrier Optimizers
5725-A06 5725-A29 5724-Y48 5724-Y49 5724-Y54 5724-Y55 5655-Y21
Copyright IBM Corp. 1988, 2017.  All Rights Reserved.

Type 'help' for a list of available commands.
Type 'help' followed by a command name for more
information on commands.

CPLEX> Specified objective sense: MINIMIZE
Selected objective  name:  line[1]
Selected RHS        name:  RHS
Selected bound      name:  BOUND
Problem '/tmp/cmpl.T15157.mps' read.
Read time = 0.07 sec. (10.22 ticks)
CPLEX> CPXPARAM_Read_APIEncoding                        "UTF-8"
Tried aggregator 3 times.
MIP Presolve eliminated 22957 rows and 35500 columns.
MIP Presolve modified 637 coefficients.
Aggregator did 1772 substitutions.
Reduced MIP has 3193 rows, 5183 columns, and 15371 nonzeros.
Reduced MIP has 4973 binaries, 0 generals, 0 SOSs, and 0 indicators.
Presolve time = 0.08 sec. (55.95 ticks)
Found incumbent of value 4469.285715 after 0.15 sec. (116.29 ticks)
Probing time = 0.01 sec. (2.76 ticks)
Tried aggregator 2 times.
MIP Presolve eliminated 5 rows and 64 columns.
MIP Presolve modified 18 coefficients.
Aggregator did 3 substitutions.
Reduced MIP has 3185 rows, 5116 columns, and 15226 nonzeros.
Reduced MIP has 5116 binaries, 0 generals, 0 SOSs, and 0 indicators.
Presolve time = 0.02 sec. (18.50 ticks)
Probing time = 0.01 sec. (2.97 ticks)
Clique table members: 4450.
MIP emphasis: balance optimality and feasibility.
MIP search method: dynamic search.
Parallel mode: none, using 1 thread.
Root relaxation solution time = 0.02 sec. (18.87 ticks)

        Nodes                                         Cuts/
   Node  Left     Objective  IInf  Best Integer    Best Bound    ItCnt     Gap

*     0+    0                         4469.2857        0.0000           100.00%
*     0     0      integral     0     1987.5886     1987.5886     1285    0.00%
Elapsed time = 0.22 sec. (169.86 ticks, tree = 0.00 MB, solutions = 2)

Root node processing (before b&c):
  Real time             =    0.22 sec. (171.43 ticks)
Sequential b&c:
  Real time             =    0.00 sec. (0.00 ticks)
                          ------------
Total (root+branch&cut) =    0.22 sec. (171.43 ticks)

Solution pool: 2 solutions saved.

MIP - Integer optimal solution:  Objective =  1.9875885550e+03
Solution time =    0.22 sec.  Iterations = 1285  Nodes = 0
Deterministic time = 171.55 ticks  (764.72 ticks/sec)

CPLEX> Incumbent solution written to file '/tmp/cmpl.T15157.gsol'.
CPLEX> 
CMPL: Time used for model generation: 0 seconds
CMPL: Time used for solving the model: 1 seconds


Solution written to ASCII file: results/output_generated/2015-11-02-5/fair-nonlinear.sol

Solver - finished
